sat-competition-2018/orders/benchmarks-pi/cms-scheel-sha3-order-w1-rp-o3.cnf
c This is a CNF SAT formula in the DIMACS CNF format,
c produced with the bc2cnf translator by Tommi Junttila;
c see http://users.ics.aalto.fi/tjunttil/circuits/index.html
c cidentity <-> 1
c h1out15 <-> 28
c h1r2p15 <-> 28
c h1r1p4 <-> 28
c h1r0p24 <-> 28
c h1in21 <-> 28
c h1out13 <-> 29
c h1r2p13 <-> 29
c h1r1p19 <-> 29
c h1r0p23 <-> 29
c h1in15 <-> 29
c h1out6 <-> 30
c h1r2p6 <-> 30
c h1r1p9 <-> 30
c h1r0p22 <-> 30
c h1in14 <-> 30
c h1out4 <-> 31
c h1r2p4 <-> 31
c h1r1p24 <-> 31
c h1r0p21 <-> 31
c h1in8 <-> 31
c h1out22 <-> 32
c h1r2p22 <-> 32
c h1r1p14 <-> 32
c h1r0p20 <-> 32
c h1in2 <-> 32
c h1out12 <-> 33
c h1r2p12 <-> 33
c h1r1p13 <-> 33
c h1r0p19 <-> 33
c h1in23 <-> 33
c h1out5 <-> 34
c h1r2p5 <-> 34
c h1r1p3 <-> 34
c h1r0p18 <-> 34
c h1in17 <-> 34
c h1out3 <-> 35
c h1r2p3 <-> 35
c h1r1p18 <-> 35
c h1r0p17 <-> 35
c h1in11 <-> 35
c h1out21 <-> 36
c h1r2p21 <-> 36
c h1r1p8 <-> 36
c h1r0p16 <-> 36
c h1in5 <-> 36
c h1out19 <-> 37
c h1r2p19 <-> 37
c h1r1p23 <-> 37
c h1r0p15 <-> 37
c h1in4 <-> 37
c h1out9 <-> 38
c h1r2p9 <-> 38
c h1r1p22 <-> 38
c h1r0p14 <-> 38
c h1in20 <-> 38
c h1out2 <-> 39
c h1r2p2 <-> 39
c h1r1p12 <-> 39
c h1r0p13 <-> 39
c h1in19 <-> 39
c h1out20 <-> 40
c h1r2p20 <-> 40
c h1r1p2 <-> 40
c h1r0p12 <-> 40
c h1in13 <-> 40
c h1out18 <-> 41
c h1r2p18 <-> 41
c h1r1p17 <-> 41
c h1r0p11 <-> 41
c h1in7 <-> 41
c h1out11 <-> 42
c h1r2p11 <-> 42
c h1r1p7 <-> 42
c h1r0p10 <-> 42
c h1in1 <-> 42
c h1out1 <-> 43
c h1r2p1 <-> 43
c h1r1p6 <-> 43
c h1r0p9 <-> 43
c h1in22 <-> 43
c h1out24 <-> 44
c h1r2p24 <-> 44
c h1r1p21 <-> 44
c h1r0p8 <-> 44
c h1in16 <-> 44
c h1out17 <-> 45
c h1r2p17 <-> 45
c h1r1p11 <-> 45
c h1r0p7 <-> 45
c h1in10 <-> 45
c h1out10 <-> 46
c h1r2p10 <-> 46
c h1r1p1 <-> 46
c h1r0p6 <-> 46
c h1in9 <-> 46
c h1out8 <-> 47
c h1r2p8 <-> 47
c h1r1p16 <-> 47
c h1r0p5 <-> 47
c h1in3 <-> 47
c h1out23 <-> 48
c h1r2p23 <-> 48
c h1r1p15 <-> 48
c h1r0p4 <-> 48
c h1in24 <-> 48
c h1out16 <-> 49
c h1r2p16 <-> 49
c h1r1p5 <-> 49
c h1r0p3 <-> 49
c h1in18 <-> 49
c h1out14 <-> 50
c h1r2p14 <-> 50
c h1r1p20 <-> 50
c h1r0p2 <-> 50
c h1in12 <-> 50
c h1out7 <-> 51
c h1r2p7 <-> 51
c h1r1p10 <-> 51
c h1r0p1 <-> 51
c h1in6 <-> 51
c h1out0 <-> 52
c h1r2p0 <-> 52
c h1r1p0 <-> 52
c h1r0p0 <-> 52
c h1in0 <-> 52
p cnf 52 128
1 0
-2 3 0
-2 4 0
-2 5 0
-2 6 0
-2 7 0
-2 8 0
-2 9 0
-2 10 0
-2 11 0
-2 12 0
-2 13 0
-2 14 0
-2 15 0
-2 16 0
-2 17 0
-2 18 0
-2 19 0
-2 20 0
-2 21 0
-2 22 0
-2 23 0
-2 24 0
-2 25 0
-2 26 0
-2 27 0
2 -27 -26 -25 -24 -23 -22 -21 -20 -19 -18 -17 -16 -15 -14 -13 -12 -11 -10 -9 -8 -7 -6 -5 -4 -3 0
-2 0
3 48 44 0
3 -48 -44 0
-3 48 -44 0
-3 -48 44 0
4 48 33 0
4 -48 -33 0
-4 48 -33 0
-4 -48 33 0
5 43 32 0
5 -43 -32 0
-5 43 -32 0
-5 -43 32 0
6 36 28 0
6 -36 -28 0
-6 36 -28 0
-6 -36 28 0
7 40 38 0
7 -40 -38 0
-7 40 -38 0
-7 -40 38 0
8 39 37 0
8 -39 -37 0
-8 39 -37 0
-8 -39 37 0
9 49 41 0
9 -49 -41 0
-9 49 -41 0
-9 -49 41 0
10 45 34 0
10 -45 -34 0
-10 45 -34 0
-10 -45 34 0
11 49 44 0
11 -49 -44 0
-11 49 -44 0
-11 -49 44 0
12 29 28 0
12 -29 -28 0
-12 29 -28 0
-12 -29 28 0
13 50 30 0
13 -50 -30 0
-13 50 -30 0
-13 -50 30 0
14 40 29 0
14 -40 -29 0
-14 40 -29 0
-14 -40 29 0
15 50 33 0
15 -50 -33 0
-15 50 -33 0
-15 -50 33 0
16 42 35 0
16 -42 -35 0
-16 42 -35 0
-16 -42 35 0
17 46 45 0
17 -46 -45 0
-17 46 -45 0
-17 -46 45 0
18 46 38 0
18 -46 -38 0
-18 46 -38 0
-18 -46 38 0
19 47 31 0
19 -47 -31 0
-19 47 -31 0
-19 -47 31 0
20 51 41 0
20 -51 -41 0
-20 51 -41 0
-20 -51 41 0
21 51 30 0
21 -51 -30 0
-21 51 -30 0
-21 -51 30 0
22 36 34 0
22 -36 -34 0
-22 36 -34 0
-22 -36 34 0
23 37 31 0
23 -37 -31 0
-23 37 -31 0
-23 -37 31 0
24 47 35 0
24 -47 -35 0
-24 47 -35 0
-24 -47 35 0
25 39 32 0
25 -39 -32 0
-25 39 -32 0
-25 -39 32 0
26 43 42 0
26 -43 -42 0
-26 43 -42 0
-26 -43 42 0
27 52 52 0
27 -52 -52 0
-27 52 -52 0
-27 -52 52 0
